presolving:
(round 1, fast)       151 del vars, 0 del conss, 0 add conss, 0 chg bounds, 0 chg sides, 0 chg coeffs, 0 upgd conss, 0 impls, 300 clqs
(round 2, exhaustive) 151 del vars, 0 del conss, 0 add conss, 0 chg bounds, 0 chg sides, 0 chg coeffs, 300 upgd conss, 0 impls, 300 clqs
   (1.0s) probing: 51/22350 (0.2%) - 0 fixings, 0 aggregations, 0 implications, 0 bound changes
   (1.0s) probing aborted: 50/50 successive totally useless probings
   Deactivated symmetry handling methods, since SCIP was built without symmetry detector (SYM=none).
presolving (3 rounds: 3 fast, 2 medium, 2 exhaustive):
 151 deleted vars, 0 deleted constraints, 0 added constraints, 0 tightened bounds, 0 added holes, 0 changed sides, 0 changed coefficients
 0 implications, 300 cliques
presolved problem has 22499 variables (22350 bin, 0 int, 0 impl, 149 cont) and 22352 constraints
    300 constraints of type <setppc>
  22052 constraints of type <linear>
Presolving Time: 1.00

 time | node  | left  |LP iter|LP it/n|mem/heur|mdpt |vars |cons |rows |cuts |sepa|confs|strbr|  dualbound   | primalbound  |  gap   | compl. 
p 2.0s|     1 |     0 |    80 |     - | vbounds|   0 |  22k|  22k|  22k|   0 |  0 |   5 |   0 | 0.000000e+00 | 2.737594e+05 |    Inf | unknown
  2.0s|     1 |     0 |   543 |     - |   221M |   0 |  22k|  22k|  22k|   0 |  0 |   5 |   0 | 2.053742e+04 | 2.737594e+05 |1232.98%| unknown
  3.0s|     1 |     0 |   676 |     - |   227M |   0 |  22k|  22k|  22k| 121 |  1 |   5 |   0 | 2.250341e+04 | 2.737594e+05 |1116.52%| unknown
  4.0s|     1 |     0 |   792 |     - |   231M |   0 |  22k|  22k|  22k| 191 |  2 |   5 |   0 | 2.338577e+04 | 2.737594e+05 |1070.62%| unknown
  4.0s|     1 |     0 |   852 |     - |   237M |   0 |  22k|  22k|  22k| 220 |  3 |   5 |   0 | 2.437969e+04 | 2.737594e+05 |1022.90%| unknown
  5.0s|     1 |     0 |   882 |     - |   241M |   0 |  22k|  22k|  22k| 230 |  4 |   5 |   0 | 2.441283e+04 | 2.737594e+05 |1021.38%| unknown
  6.0s|     1 |     0 |   888 |     - |   243M |   0 |  22k|  22k|  22k| 236 |  5 |   5 |   0 | 2.441283e+04 | 2.737594e+05 |1021.38%| unknown
  6.0s|     1 |     0 |   939 |     - |   245M |   0 |  22k|  22k|  22k| 260 |  6 |   5 |   0 | 2.448136e+04 | 2.737594e+05 |1018.24%| unknown
  7.0s|     1 |     0 |   969 |     - |   247M |   0 |  22k|  22k|  22k| 280 |  7 |   5 |   0 | 2.448836e+04 | 2.737594e+05 |1017.92%| unknown
  7.0s|     1 |     0 |   979 |     - |   251M |   0 |  22k|  22k|  22k| 287 |  8 |   5 |   0 | 2.448836e+04 | 2.737594e+05 |1017.92%| unknown
  8.0s|     1 |     0 |   997 |     - |   253M |   0 |  22k|  22k|  22k| 297 |  9 |   5 |   0 | 2.448836e+04 | 2.737594e+05 |1017.92%| unknown
  8.0s|     1 |     0 |  1021 |     - |   255M |   0 |  22k|  22k|  22k| 306 | 10 |   5 |   0 | 2.452736e+04 | 2.737594e+05 |1016.14%| unknown
  9.0s|     1 |     0 |  1045 |     - |   257M |   0 |  22k|  22k|  22k| 317 | 11 |   5 |   0 | 2.452749e+04 | 2.737594e+05 |1016.13%| unknown
  9.0s|     1 |     0 |  1050 |     - |   259M |   0 |  22k|  22k|  22k| 319 | 12 |   5 |   0 | 2.453299e+04 | 2.737594e+05 |1015.88%| unknown
  9.0s|     1 |     0 |  1072 |     - |   262M |   0 |  22k|  22k|  22k| 331 | 13 |   5 |   0 | 2.453299e+04 | 2.737594e+05 |1015.88%| unknown
 time | node  | left  |LP iter|LP it/n|mem/heur|mdpt |vars |cons |rows |cuts |sepa|confs|strbr|  dualbound   | primalbound  |  gap   | compl. 
 10.0s|     1 |     0 |  1092 |     - |   264M |   0 |  22k|  22k|  22k| 339 | 14 |   5 |   0 | 2.453839e+04 | 2.737594e+05 |1015.64%| unknown
 11.0s|     1 |     0 |  1116 |     - |   266M |   0 |  22k|  22k|  22k| 344 | 15 |   5 |   0 | 2.456251e+04 | 2.737594e+05 |1014.54%| unknown
 12.0s|     1 |     0 |  1133 |     - |   268M |   0 |  22k|  22k|  22k| 360 | 16 |   5 |   0 | 2.456251e+04 | 2.737594e+05 |1014.54%| unknown
 12.0s|     1 |     0 |  1146 |     - |   270M |   0 |  22k|  22k|  22k| 368 | 17 |   5 |   0 | 2.456362e+04 | 2.737594e+05 |1014.49%| unknown
 13.0s|     1 |     0 |  1173 |     - |   272M |   0 |  22k|  22k|  22k| 377 | 18 |   5 |   0 | 2.456369e+04 | 2.737594e+05 |1014.49%| unknown
 13.0s|     1 |     0 |  1179 |     - |   275M |   0 |  22k|  22k|  22k| 383 | 19 |   5 |   0 | 2.456369e+04 | 2.737594e+05 |1014.49%| unknown
 14.0s|     1 |     0 |  1189 |     - |   277M |   0 |  22k|  22k|  22k| 385 | 20 |   5 |   0 | 2.456393e+04 | 2.737594e+05 |1014.48%| unknown
 15.0s|     1 |     0 |  1190 |     - |   277M |   0 |  22k|  22k|  22k| 387 | 21 |   5 |   0 | 2.456393e+04 | 2.737594e+05 |1014.48%| unknown
 15.0s|     1 |     0 |  1202 |     - |   277M |   0 |  22k|  22k|  22k| 393 | 22 |   5 |   0 | 2.456393e+04 | 2.737594e+05 |1014.48%| unknown
 16.0s|     1 |     0 |  1211 |     - |   279M |   0 |  22k|  22k|  22k| 402 | 23 |   5 |   0 | 2.456393e+04 | 2.737594e+05 |1014.48%| unknown
 16.0s|     1 |     0 |  1221 |     - |   279M |   0 |  22k|  22k|  22k| 408 | 24 |   5 |   0 | 2.456393e+04 | 2.737594e+05 |1014.48%| unknown
 17.0s|     1 |     0 |  1233 |     - |   279M |   0 |  22k|  22k|  22k| 417 | 25 |   5 |   0 | 2.456393e+04 | 2.737594e+05 |1014.48%| unknown
 60.0s|     1 |     2 |  8324 |     - |   283M |   0 |  22k|  22k|  22k| 417 | 26 |   7 |  35 | 2.462673e+04 | 2.737594e+05 |1011.63%| unknown

SCIP Status        : solving was interrupted [time limit reached]
Solving Time (sec) : 600.00
Solving Nodes      : 34
Primal Bound       : +2.73759354869459e+05 (1 solutions)
Dual Bound         : +2.47161188082744e+04
Gap                : 1007.61 %
Trying to solve problem with MTZ Solver Method...
Starting Solver, time limit setted to 10 minutes
Route:  [[0, 2], [1, 3], [2, 1], [3, 4], [4, 5], [5, 6], [6, 7], [7, 8], [8, 9], [9, 10], [10, 11], [11, 12], [12, 13], [13, 14], [14, 15], [15, 16], [16, 17], [17, 18], [18, 19], [19, 20], [20, 21], [21, 22], [22, 23], [23, 24], [24, 25], [25, 26], [26, 27], [27, 28], [28, 29], [29, 30], [30, 31], [31, 32], [32, 33], [33, 34], [34, 35], [35, 36], [36, 37], [37, 38], [38, 39], [39, 40], [40, 41], [41, 42], [42, 43], [43, 44], [44, 45], [45, 46], [46, 47], [47, 48], [48, 49], [49, 50], [50, 51], [51, 52], [52, 53], [53, 54], [54, 55], [55, 56], [56, 57], [57, 58], [58, 59], [59, 60], [60, 61], [61, 62], [62, 63], [63, 64], [64, 65], [65, 66], [66, 67], [67, 68], [68, 69], [69, 70], [70, 71], [71, 72], [72, 73], [73, 74], [74, 75], [75, 76], [76, 77], [77, 78], [78, 79], [79, 80], [80, 81], [81, 82], [82, 83], [83, 84], [84, 85], [85, 86], [86, 87], [87, 88], [88, 89], [89, 90], [90, 91], [91, 92], [92, 93], [93, 94], [94, 95], [95, 96], [96, 97], [97, 98], [98, 99], [99, 100], [100, 101], [101, 102], [102, 103], [103, 104], [104, 105], [105, 106], [106, 107], [107, 108], [108, 109], [109, 110], [110, 111], [111, 112], [112, 113], [113, 114], [114, 115], [115, 116], [116, 117], [117, 118], [118, 119], [119, 120], [120, 121], [121, 122], [122, 123], [123, 124], [124, 125], [125, 126], [126, 127], [127, 128], [128, 129], [129, 130], [130, 131], [131, 132], [132, 133], [133, 134], [134, 135], [135, 136], [136, 137], [137, 138], [138, 139], [139, 140], [140, 141], [141, 142], [142, 143], [143, 144], [144, 145], [145, 146], [146, 147], [147, 148], [148, 149], [149, 0]]
An Otimal Solution was found, yay!
Objective value: 273759.4
Problem solved in 11400 iterations
Problem solved in 34 nodes
Final Route Configuration succesfully created at:
data/routes/kroB150.csv
